c 1 A1
c 2 A2
c 3 C5
c 4 C6
c 5 A4
c 6 C8
c 7 A3
c 8 C9
c 9 C11
c 10 A7
c 11 C12
c 12 C13
c 13 A10
c 14 C15
c 15 C16
c 16 C17
c 17 C18
c 18 C19
c 19 C20
c 20 C21
c 21 C22
c 22 A14
c 23 C23
c 24 C25
c 25 A24
c 26 C26
p cnf 26 40
1 0
1 -2 0
2 -7 0
2 -5 0
2 -3 0
2 -4 0
2 -10 0
7 -2 0
3 -2 0
4 -2 0
10 -2 0
5 -6 0
6 -5 0
7 -8 0
7 -13 0
7 -9 0
8 -7 0
13 -7 0
9 -7 0
10 -11 0
10 -12 0
10 -22 0
13 -14 0
13 -15 0
13 -16 0
13 -17 0
13 -18 0
13 -19 0
13 -20 0
13 -21 0
14 -13 0
15 -13 0
20 -13 0
21 -13 0
22 -23 0
22 -25 0
22 -24 0
25 -26 0
23 -17 0
-21 -23 0